NAME: rue_25_9
TYPE: TSP
DIMENSION: 25
EDGE_WEIGHT_TYPE: EUC_2D
NODE_COORD_SECTION
1 92 10
2 30 49
3 32 71
4 68 76
5 40 81
6 69 80
7 59 31
8 38 98
9 19 15
10 75 32
11 97 67
12 52 3
13 31 41
14 81 88
15 19 29
16 78 67
17 83 49
18 10 83
19 1 51
20 1 66
21 11 57
22 96 33
23 13 72
24 5 87
25 27 7
